TCS_Benchmarks/redos_fix/snort1_output_distinct_2793_2792_4_0.smt2
(set-logic QF_S)
(declare-const x String)
(assert (str.in.re x (re.inter  (re.++  (re.++  (str.to.re "\u{78}") (re.++  (str.to.re "\u{6d}") (re.++  (str.to.re "\u{6c}") (re.++  (str.to.re "\u{6e}") (re.++  (str.to.re "\u{73}")  (str.to.re "\u{3a}")))))) (re.++  (re.++  (str.to.re "\u{78}") (re.++  (str.to.re "\u{6d}") (re.++  (str.to.re "\u{6c}") (re.++  (str.to.re "\u{6e}") (re.++  (str.to.re "\u{73}")  (str.to.re "\u{3a}")))))) (re.++  (re.++  (str.to.re "\u{78}") (re.++  (str.to.re "\u{6d}") (re.++  (str.to.re "\u{6c}") (re.++  (str.to.re "\u{6e}") (re.++  (str.to.re "\u{73}")  (str.to.re "\u{3a}")))))) (re.++  (re.++  (str.to.re "\u{78}") (re.++  (str.to.re "\u{6d}") (re.++  (str.to.re "\u{6c}") (re.++  (str.to.re "\u{6e}") (re.++  (str.to.re "\u{73}")  (str.to.re "\u{3a}")))))) (re.++  (re.++  (str.to.re "\u{78}") (re.++  (str.to.re "\u{6d}") (re.++  (str.to.re "\u{6c}") (re.++  (str.to.re "\u{6e}") (re.++  (str.to.re "\u{73}")  (str.to.re "\u{3a}")))))) (re.++  (re.++  (str.to.re "\u{78}") (re.++  (str.to.re "\u{6d}") (re.++  (str.to.re "\u{6c}") (re.++  (str.to.re "\u{6e}") (re.++  (str.to.re "\u{73}")  (str.to.re "\u{3a}")))))) (re.++  (re.++  (str.to.re "\u{78}") (re.++  (str.to.re "\u{6d}") (re.++  (str.to.re "\u{6c}") (re.++  (str.to.re "\u{6e}") (re.++  (str.to.re "\u{73}")  (str.to.re "\u{3a}")))))) (re.++  (re.++  (str.to.re "\u{78}") (re.++  (str.to.re "\u{6d}") (re.++  (str.to.re "\u{6c}") (re.++  (str.to.re "\u{6e}") (re.++  (str.to.re "\u{73}")  (str.to.re "\u{3a}")))))) (re.++  (re.++  (str.to.re "\u{78}") (re.++  (str.to.re "\u{6d}") (re.++  (str.to.re "\u{6c}") (re.++  (str.to.re "\u{6e}") (re.++  (str.to.re "\u{73}")  (str.to.re "\u{3a}")))))) (re.++  (re.++  (str.to.re "\u{78}") (re.++  (str.to.re "\u{6d}") (re.++  (str.to.re "\u{6c}") (re.++  (str.to.re "\u{6e}") (re.++  (str.to.re "\u{73}")  (str.to.re "\u{3a}")))))) (re.++  (re.++  (str.to.re "\u{78}") (re.++  (str.to.re "\u{6d}") (re.++  (str.to.re "\u{6c}") (re.++  (str.to.re "\u{6e}") (re.++  (str.to.re "\u{73}")  (str.to.re "\u{3a}")))))) (re.++  (re.++  (str.to.re "\u{78}") (re.++  (str.to.re "\u{6d}") (re.++  (str.to.re "\u{6c}") (re.++  (str.to.re "\u{6e}") (re.++  (str.to.re "\u{73}")  (str.to.re "\u{3a}")))))) (re.++  (re.++  (str.to.re "\u{78}") (re.++  (str.to.re "\u{6d}") (re.++  (str.to.re "\u{6c}") (re.++  (str.to.re "\u{6e}") (re.++  (str.to.re "\u{73}")  (str.to.re "\u{3a}")))))) (re.++  (re.++  (str.to.re "\u{78}") (re.++  (str.to.re "\u{6d}") (re.++  (str.to.re "\u{6c}") (re.++  (str.to.re "\u{6e}") (re.++  (str.to.re "\u{73}")  (str.to.re "\u{3a}"))))))  (re.++  (str.to.re "\u{78}") (re.++  (str.to.re "\u{6d}") (re.++  (str.to.re "\u{6c}") (re.++  (str.to.re "\u{6e}") (re.++  (str.to.re "\u{73}")  (str.to.re "\u{3a}"))))))))))))))))))))  (re.++ (re.* (re.union (re.range "\u{00}" "\u{09}") (re.range "\u{0b}" "\u{0c}") (re.range "\u{0e}" "\u{84}") (re.range "\u{86}" "\u{ff}")) ) (re.++ (re.* (re.union (re.range "\u{00}" "\u{09}") (re.range "\u{0b}" "\u{0c}") (re.range "\u{0e}" "\u{84}") (re.range "\u{86}" "\u{ff}")) ) (re.++ (re.* (re.union (re.range "\u{00}" "\u{09}") (re.range "\u{0b}" "\u{0c}") (re.range "\u{0e}" "\u{84}") (re.range "\u{86}" "\u{ff}")) ) (re.++ (re.* (re.union (re.range "\u{00}" "\u{09}") (re.range "\u{0b}" "\u{0c}") (re.range "\u{0e}" "\u{84}") (re.range "\u{86}" "\u{ff}")) ) (re.++ (re.* (re.union (re.range "\u{00}" "\u{09}") (re.range "\u{0b}" "\u{0c}") (re.range "\u{0e}" "\u{84}") (re.range "\u{86}" "\u{ff}")) ) (re.++ (re.* (re.union (re.range "\u{00}" "\u{09}") (re.range "\u{0b}" "\u{0c}") (re.range "\u{0e}" "\u{84}") (re.range "\u{86}" "\u{ff}")) ) (re.++ (re.* (re.union (re.range "\u{00}" "\u{09}") (re.range "\u{0b}" "\u{0c}") (re.range "\u{0e}" "\u{84}") (re.range "\u{86}" "\u{ff}")) ) (re.++ (re.* (re.union (re.range "\u{00}" "\u{09}") (re.range "\u{0b}" "\u{0c}") (re.range "\u{0e}" "\u{84}") (re.range "\u{86}" "\u{ff}")) ) (re.++ (re.* (re.union (re.range "\u{00}" "\u{09}") (re.range "\u{0b}" "\u{0c}") (re.range "\u{0e}" "\u{84}") (re.range "\u{86}" "\u{ff}")) ) (re.++ (re.* (re.union (re.range "\u{00}" "\u{09}") (re.range "\u{0b}" "\u{0c}") (re.range "\u{0e}" "\u{84}") (re.range "\u{86}" "\u{ff}")) ) (re.++ (re.* (re.union (re.range "\u{00}" "\u{09}") (re.range "\u{0b}" "\u{0c}") (re.range "\u{0e}" "\u{84}") (re.range "\u{86}" "\u{ff}")) ) (re.++ (re.* (re.union (re.range "\u{00}" "\u{09}") (re.range "\u{0b}" "\u{0c}") (re.range "\u{0e}" "\u{84}") (re.range "\u{86}" "\u{ff}")) ) (re.++ (re.* (re.union (re.range "\u{00}" "\u{09}") (re.range "\u{0b}" "\u{0c}") (re.range "\u{0e}" "\u{84}") (re.range "\u{86}" "\u{ff}")) ) (re.++ (re.* (re.union (re.range "\u{00}" "\u{09}") (re.range "\u{0b}" "\u{0c}") (re.range "\u{0e}" "\u{84}") (re.range "\u{86}" "\u{ff}")) ) (re.* (re.union (re.range "\u{00}" "\u{09}") (re.range "\u{0b}" "\u{0c}") (re.range "\u{0e}" "\u{84}") (re.range "\u{86}" "\u{ff}")) ))))))))))))))) )))
(check-sat)
(get-model)