TCS_Benchmarks/redos_fix/snort1_output_distinct_2793_2792_4_0.txt
(xmlns:){15}
(.*){15}